196,249
441,284
713,199
1020,160
839,188
1131,406
935,660
787,460
801,406
681,166
789,193
766,433
769,392
699,524
621,406
633,441
441,406
444,443
267,341
385,452
494,501
196,563
505,164
681,-14
586,219
699,349
694,432
681,706
552,805
477,806
857,648
893,618
839,624
831,406
850,283
